19
3 0 2 0
3 0 4 0
4 0 16 12 0
3 0 3 0
3 0 8 0
3 0 14 0
3 0 7 0
3 0 22 0
3 0 13 0
3 0 34 0
3 0 15 0
4 0 6 10 0
5 0 9 23 19 0
3 0 21 0
3 0 25 0
3 0 20 0
3 0 30 0
9 0 33 27 11 26 28 31 29 0
10 0 36 35 18 32 24 17 5 1 0
